TOUR_SECTION
1
55
99
100
185
3
81
109
31
33
76
183
117
47
149
141
83
166
92
107
45
122
56
85
22
70
27
37
60
153
57
116
84
190
137
188
198
61
105
182
113
54
135
53
23
63
151
179
145
128
194
169
95
21
126
24
195
64
62
110
201
170
77
129
191
51
197
112
68
160
25
4
98
78
89
196
193
200
178
46
108
94
177
156
124
104
161
189
103
168
115
80
154
40
192
186
36
118
2
132
164
134
65
8
146
133
165
123
73
142
125
96
163
139
102
9
162
7
199
35
69
155
29
175
67
173
59
148
147
52
44
150
87
13
30
34
140
50
144
28
167
32
58
20
90
176
174
71
181
16
38
39
152
14
75
106
72
49
12
121
82
157
187
184
79
114
18
17
6
130
138
136
131
97
180
111
42
93
88
43
159
5
172
143
171
74
48
41
19
86
26
11
119
15
10
91
127
120
101
158
66
-1
EOF